1111100 AB
378 389 401 413 424 434 444 454 464 474 484 494 504 514 524 534 544 554 572 591 610 628 647 666 684 694 708 721 731 750 769 787 806 825 844 862 881 899 909 918 927 937 946 956 966 976 986 997 1007 1019 1031 1048 1060 1071 1089 1108
1111100 BA
360 371 383 395 406 412 418 432 444 454 464 474 484 494 504 514 524 534 552 572 591 609 628 647 665 674 684 702 712 726 749 768 787 806 825 843 862 880 890 899 908 917 927 936 945 955 964 975 985 995 1005 1016 1026 1038 1050 1067 1089
